benchmarks/VRPTW/TSPTW/solution/n200w40.003.txt.solution
1 70 153 62 143 123 78 95 14 122 84 135 113 27 179 120 137 174 112 57 47 61 158 5 24 31 63 53 43 173 160 54 23 196 195 124 100 157 140 33 200 72 119 133 129 28 85 171 12 59 177 186 6 152 97 127 42 4 81 156 34 9 169 139 67 52 41 55 71 188 21 17 181 90 144 134 121 76 117 93 15 98 25 65 87 20 94 66 159 89 163 147 39 180 199 92 166 167 189 68 101 148 175 105 64 141 145 107 46 19 132 22 10 149 138 103 161 77 154 187 29 2 184 13 82 108 8 86 83 150 126 99 40 190 162 128 165 182 197 142 26 111 38 168 32 58 115 73 51 109 170 155 35 106 75 176 37 50 49 30 178 60 192 110 80 131 114 198 191 18 146 3 7 88 104 96 183 74 185 151 69 193 102 130 118 56 125 11 16 164 172 91 44 136 194 79 48 116 201 45 36 
933
